VER
4

OBJSENSE
MIN

QCECONES
1 2
2
10 10
1


VAR
57 1
F 57

CON
5164 4
@0:SVECQCE 5051
SVECQE 57
SVECPSD 55
L= 1

OBJACOORD
2
0 1.0
1 1.0

ACOORD
132
0 0 1.0
1 2 1.0
56 3 1.0
66 4 1.0
211 5 1.0
221 6 1.0
231 7 1.0
466 8 1.0
476 9 1.0
486 10 1.0
496 11 1.0
821 12 1.0
831 13 1.0
841 14 1.0
851 15 1.0
861 16 1.0
1276 17 1.0
1286 18 1.0
1296 19 1.0
1306 20 1.0
1316 21 1.0
1326 22 1.0
1831 23 1.0
1841 24 1.0
1851 25 1.0
1861 26 1.0
1871 27 1.0
1881 28 1.0
1891 29 1.0
2486 30 1.0
2496 31 1.0
2506 32 1.0
2516 33 1.0
2526 34 1.0
2536 35 1.0
2546 36 1.0
2556 37 1.0
3241 38 1.0
3251 39 1.0
3261 40 1.0
3271 41 1.0
3281 42 1.0
3291 43 1.0
3301 44 1.0
3311 45 1.0
3321 46 1.0
4096 47 1.0
4106 48 1.0
4116 49 1.0
4126 50 1.0
4136 51 1.0
4146 52 1.0
4156 53 1.0
4166 54 1.0
4176 55 1.0
4186 56 1.0
5051 1 1.0
5053 2 1.0
5053 4 1.0
5053 7 1.0
5053 11 1.0
5053 16 1.0
5053 22 1.0
5053 29 1.0
5053 37 1.0
5053 46 1.0
5053 56 1.0
5108 2 1.0
5109 3 1.0
5110 4 1.0
5111 5 1.0
5112 6 1.0
5113 7 1.0
5114 8 1.0
5115 9 1.0
5116 10 1.0
5117 11 1.0
5118 12 1.0
5119 13 1.0
5120 14 1.0
5121 15 1.0
5122 16 1.0
5123 17 1.0
5124 18 1.0
5125 19 1.0
5126 20 1.0
5127 21 1.0
5128 22 1.0
5129 23 1.0
5130 24 1.0
5131 25 1.0
5132 26 1.0
5133 27 1.0
5134 28 1.0
5135 29 1.0
5136 30 1.0
5137 31 1.0
5138 32 1.0
5139 33 1.0
5140 34 1.0
5141 35 1.0
5142 36 1.0
5143 37 1.0
5144 38 1.0
5145 39 1.0
5146 40 1.0
5147 41 1.0
5148 42 1.0
5149 43 1.0
5150 44 1.0
5151 45 1.0
5152 46 1.0
5153 47 1.0
5154 48 1.0
5155 49 1.0
5156 50 1.0
5157 51 1.0
5158 52 1.0
5159 53 1.0
5160 54 1.0
5161 55 1.0
5162 56 1.0
5163 2 1.0
5163 4 1.0
5163 7 1.0
5163 11 1.0
5163 16 1.0
5163 22 1.0
5163 29 1.0
5163 37 1.0
5163 46 1.0
5163 56 1.0

BCOORD
2
5052 -1.0
5163 1.0
